25	2
9	5	
0	0	0	13	2	3	4	5	6	7	8	9	13	14	15	18	24	
939	2	2	1	25	
333	3	2	2	17	19	
12	2	2	1	16	
12	2	2	1	12	
17	3	2	1	11	
14	3	2	1	10	
850	2	2	1	25	
1018	2	2	3	21	22	19	
14	3	2	1	23	
16	3	2	2	20	17	
313	2	2	1	25	
634	3	2	1	17	
1075	3	2	1	25	
9	2	2	1	17	
479	3	2	1	25	
14	3	2	1	25	
718	3	2	1	25	
721	2	2	1	23	
11	2	2	1	25	
5	2	2	1	25	
12	3	2	1	25	
6	3	2	1	25	
5	2	2	1	25	
0	0	0	0	